32076.4
20 82 48 15 73 57 2 66 39 98 53 69 5 63 54 58 31 26 18 24 89 32 1 97 49 96 75 28 33 25 60 92 62 7 45 94 12 22 11 52 16 67 88 0 78 79 64 55 56 59 74 80 27 29 61 9 90 46 70 44 42 3 19 83 95 8 30 86 85 37 71 35 23 65 10 38 4 21 41 72 68 43 13 34 99 87 6 84 51 40 36 14 93 76 17 50 81 47 77 91 
